<instance format="XCSP3" type="COP">
  <variables>
    <array id="s" size="[20]"> 0..57 </array>
    <array id="w" size="[9][20]"> 0 1 </array>
    <var id="obj"> 0..57 </var>
  </variables>
  <constraints>
    <group note="respecting precedence">
      <intension> le(add(%0,%1),%2) </intension>
      <args> s[0] 4 s[5] </args>
      <args> s[0] 4 s[7] </args>
      <args> s[0] 4 s[8] </args>
      <args> s[1] 4 s[4] </args>
      <args> s[1] 4 s[6] </args>
      <args> s[1] 4 s[13] </args>
      <args> s[2] 3 s[3] </args>
      <args> s[2] 3 s[13] </args>
      <args> s[3] 2 s[4] </args>
      <args> s[3] 2 s[6] </args>
      <args> s[3] 2 s[15] </args>
      <args> s[4] 3 s[11] </args>
      <args> s[4] 3 s[12] </args>
      <args> s[5] 2 s[17] </args>
      <args> s[5] 2 s[19] </args>
      <args> s[6] 3 s[7] </args>
      <args> s[6] 3 s[16] </args>
      <args> s[6] 3 s[19] </args>
      <args> s[7] 2 s[12] </args>
      <args> s[7] 2 s[18] </args>
      <args> s[8] 2 s[9] </args>
      <args> s[8] 2 s[12] </args>
      <args> s[9] 5 s[10] </args>
      <args> s[10] 3 s[11] </args>
      <args> s[10] 3 s[13] </args>
      <args> s[11] 4 s[16] </args>
      <args> s[12] 3 s[17] </args>
      <args> s[13] 2 s[14] </args>
      <args> s[13] 2 s[17] </args>
      <args> s[14] 1 s[15] </args>
      <args> s[14] 1 s[16] </args>
      <args> s[14] 1 s[19] </args>
      <args> s[15] 3 s[18] </args>
      <args> s[16] 4 s[18] </args>
    </group>
    <group>
      <intension> ge(%0,1) </intension>
      <args> w[0][0] </args>
      <args> w[0][1] </args>
      <args> w[0][8] </args>
    </group>
    <group>
      <sum>
        <list> %... </list>
        <condition> (ge,1) </condition>
      </sum>
      <args> w[0][0] w[3..4][0] </args>
      <args> w[1][0] w[3][0] w[5..7][0] </args>
      <args> w[2][1] w[5..6][1] w[8][1] </args>
      <args> w[1][1] w[3][1] w[5..7][1] </args>
      <args> w[3][3] w[5..6][3] w[8][3] </args>
      <args> w[0][3] w[3..4][3] </args>
      <args> w[1][3] w[3][3] w[5..7][3] </args>
      <args> w[2][4] w[5..6][4] w[8][4] </args>
      <args> w[1][5] w[3][5] w[5..7][5] </args>
      <args> w[0][6] w[3..4][6] </args>
      <args> w[2][7] w[5..6][7] w[8][7] </args>
      <args> w[0][7] w[3..4][7] </args>
      <args> w[1][7] w[3][7] w[5..7][7] </args>
      <args> w[0][9] w[3..4][9] </args>
      <args> w[3][10] w[5..6][10] w[8][10] </args>
      <args> w[0][10] w[3..4][10] </args>
      <args> w[1][11] w[3][11] w[5..7][11] </args>
      <args> w[0][12] w[3..4][12] </args>
      <args> w[1][12] w[3][12] w[5..7][12] </args>
      <args> w[1][13] w[3][13] w[5..7][13] </args>
      <args> w[0][14] w[3..4][14] </args>
      <args> w[0][15] w[3..4][15] </args>
      <args> w[3][16] w[5..6][16] w[8][16] </args>
      <args> w[1][17] w[3][17] w[5..7][17] </args>
      <args> w[1][18] w[3][18] w[5..7][18] </args>
      <args> w[2][19] w[5..6][19] w[8][19] </args>
      <args> w[1][19] w[3][19] w[5..7][19] </args>
    </group>
    <group>
      <sum>
        <list> %... </list>
        <condition> (ge,2) </condition>
      </sum>
      <args> w[2][2] w[5..6][2] w[8][2] </args>
      <args> w[0][4] w[3..4][4] </args>
      <args> w[3][8] w[5..6][8] w[8][8] </args>
      <args> w[3][13] w[5..6][13] w[8][13] </args>
      <args> w[1][15] w[3][15] w[5..7][15] </args>
    </group>
    <instantiation>
      <list> w[2][0] w[8][0] w[4][1] w[0..1][2] w[3..4][2] w[7][2] w[2][3] w[1][4] w[7][4] w[0][5] w[2][5] w[4][5] w[8][5] w[1..2][6] w[5..8][6] w[1..2][8] w[4][8] w[7][8] w[1..2][9] w[5..8][9] w[1..2][10] w[7][10] w[0][11] w[2][11] w[4][11] w[8][11] w[2][12] w[8][12] w[0][13] w[2][13] w[4][13] w[1..2][14] w[5..8][14] w[2][15] w[8][15] w[0..2][16] w[4][16] w[7][16] w[0][17] w[2][17] w[4][17] w[8][17] w[0][18] w[2][18] w[4][18] w[8][18] w[0][19] w[4][19] </list>
      <values> 0x66 </values>
    </instantiation>
    <block class="redundant-constraints" note="non-overlapping constraints for the workers">
      <cumulative>
        <origins> s[0..1] s[3..4] s[6..10] s[12] s[14..15] </origins>
        <lengths> 4 4 2 3 3 2 2 5 3 3 1 3 </lengths>
        <heights> w[0][0..1] w[0][3..4] w[0][6..10] w[0][12] w[0][14..15] </heights>
        <condition> (le,1) </condition>
      </cumulative>
      <group>
        <cumulative>
          <origins> s[0..1] s[3] s[5] s[7] s[11..13] s[15] s[17..19] </origins>
          <lengths> 4 4 2 2 2 4 3 2 3 1 4 2 </lengths>
          <heights> %... </heights>
          <condition> (le,1) </condition>
        </cumulative>
        <args> w[1][0..1] w[1][3] w[1][5] w[1][7] w[1][11..13] w[1][15] w[1][17..19] </args>
        <args> w[7][0..1] w[7][3] w[7][5] w[7][7] w[7][11..13] w[7][15] w[7][17..19] </args>
      </group>
      <cumulative>
        <origins> s[1..2] s[4] s[7] s[19] </origins>
        <lengths> 4 3 3 2 2 </lengths>
        <heights> w[2][1..2] w[2][4] w[2][7] w[2][19] </heights>
        <condition> (le,1) </condition>
      </cumulative>
      <cumulative>
        <origins> s[0..1] s[3..19] </origins>
        <lengths> 4 4 2 3 2 3 2 2 5 3 4 3 2 1 3 4 1 4 2 </lengths>
        <heights> w[3][0..1] w[3][3..19] </heights>
        <condition> (le,1) </condition>
      </cumulative>
      <cumulative>
        <origins> s[0] s[3..4] s[6..7] s[9..10] s[12] s[14..15] </origins>
        <lengths> 4 2 3 3 2 5 3 3 1 3 </lengths>
        <heights> w[4][0] w[4][3..4] w[4][6..7] w[4][9..10] w[4][12] w[4][14..15] </heights>
        <condition> (le,1) </condition>
      </cumulative>
      <group>
        <cumulative>
          <origins> s[0..5] s[7..8] s[10..13] s[15..19] </origins>
          <lengths> 4 4 3 2 3 2 2 2 3 4 3 2 3 4 1 4 2 </lengths>
          <heights> %... </heights>
          <condition> (le,1) </condition>
        </cumulative>
        <args> w[5][0..5] w[5][7..8] w[5][10..13] w[5][15..19] </args>
        <args> w[6][0..5] w[6][7..8] w[6][10..13] w[6][15..19] </args>
      </group>
      <cumulative>
        <origins> s[1..4] s[7..8] s[10] s[13] s[16] s[19] </origins>
        <lengths> 4 3 2 3 2 2 3 2 4 2 </lengths>
        <heights> w[8][1..4] w[8][7..8] w[8][10] w[8][13] w[8][16] w[8][19] </heights>
        <condition> (le,1) </condition>
      </cumulative>
    </block>
    <group>
      <intension> or(le(add(%0,4),%1),le(add(%1,%2),%0)) </intension>
      <args> s[0] s[1] 4 </args>
      <args> s[1] s[8] 2 </args>
    </group>
    <cumulative>
      <origins> s[0..1] s[8] </origins>
      <lengths> 4 4 2 </lengths>
      <heights> 1x3 </heights>
      <condition> (le,1) </condition>
    </cumulative>
    <cumulative>
      <origins> s[3] s[8] s[10] s[13] s[16] </origins>
      <lengths> 2 2 3 2 4 </lengths>
      <heights> 1 2 1 2 1 </heights>
      <condition> (le,4) </condition>
    </cumulative>
    <cumulative>
      <origins> s[1..2] s[4] s[7] s[19] </origins>
      <lengths> 4 3 3 2 2 </lengths>
      <heights> 1 2 1x3 </heights>
      <condition> (le,4) </condition>
    </cumulative>
    <cumulative>
      <origins> s[0] s[3..4] s[6..7] s[9..10] s[12] s[14..15] </origins>
      <lengths> 4 2 3 3 2 5 3 3 1 3 </lengths>
      <heights> 1 1 2 1x7 </heights>
      <condition> (le,3) </condition>
    </cumulative>
    <cumulative>
      <origins> s[0..1] s[3] s[5] s[7] s[11..13] s[15] s[17..19] </origins>
      <lengths> 4 4 2x3 4 3 2 3 1 4 2 </lengths>
      <heights> 1x8 2 1x3 </heights>
      <condition> (le,5) </condition>
    </cumulative>
    <group>
      <intension> le(add(%0,%1),obj) </intension>
      <args> s[17] 1 </args>
      <args> s[18] 4 </args>
      <args> s[19] 2 </args>
    </group>
  </constraints>
  <objectives>
    <minimize> obj </minimize>
  </objectives>
</instance>
